data;
set K:= K1 K2 K3 K4 K5 K6 K7 K8 K9 K10 K11 K12 K13 K14 K15 ;

set F:= F1 F2 F3 ;

set Q:= Q1 Q2 ;

param T:= 45;
param V: 
	K1  K2  K3  K4  K5  K6  K7  K8  K9  K10 K11 K12 K13 K14 K15 :=
Q1	1   1   1   1   1   1   1   1   1   0   0   0   0   0   0   
Q2	0   0   0   0   0   0   0   0   0   1   1   1   1   1   1   
; # if resorce k is of type q

param TF:= 
K1 6
K2 6
K3 6
K4 6
K5 6
K6 6
K7 6
K8 6
K9 6
K10 12
K11 12
K12 12
K13 12
K14 12
K15 12
; # number of continuous time slots resource can fly

param TR:= 
K1 2
K2 2
K3 2
K4 2
K5 2
K6 2
K7 2
K8 2
K9 2
K10 4
K11 4
K12 4
K13 4
K14 4
K15 4
; #  number of continuous time slots resource k needs to rest between flights

param P:= 
K1 36
K2 36
K3 36
K4 36
K5 36
K6 36
K7 36
K8 36
K9 36
K10 36
K11 36
K12 36
K13 36
K14 36
K15 36
; #  number of continuous time slots a pilot can be present including rest times for resource k 

param N:= 
K1 4
K2 4
K3 4
K4 4
K5 4
K6 4
K7 4
K8 4
K9 4
K10 2
K11 2
K12 2
K13 2
K14 2
K15 2
; # max number of flights resource k can fly in the total time period

param A: 
	K1  K2  K3  K4  K5  K6  K7  K8  K9  K10 K11 K12 K13 K14 K15 :=
1	1   1   1   1   1   1   1   1   1   1   1   1   1   1   1   
2	1   1   1   1   1   1   1   1   1   1   1   1   1   1   1   
3	1   1   1   1   1   1   1   1   1   1   1   1   1   1   1   
4	1   1   1   1   1   1   1   1   1   1   1   1   1   1   1   
5	1   1   1   1   1   1   1   1   1   1   1   1   1   1   1   
6	1   1   1   1   1   1   1   1   1   1   1   1   1   1   1   
7	1   1   1   1   1   1   1   1   1   1   1   1   1   1   1   
8	1   1   1   1   1   1   1   1   1   1   1   1   1   1   1   
9	1   1   1   1   1   1   1   1   1   1   1   1   1   1   1   
10	1   1   1   1   1   1   1   1   1   1   1   1   1   1   1   
11	1   1   1   1   1   1   1   1   1   1   1   1   1   1   1   
12	1   1   1   1   1   1   1   1   1   1   1   1   1   1   1   
13	1   1   1   1   1   1   1   1   1   1   1   1   1   1   1   
14	1   1   1   1   1   1   1   1   1   1   1   1   1   1   1   
15	1   1   1   1   1   1   1   1   1   1   1   1   1   1   1   
16	1   1   1   1   1   1   1   1   1   1   1   1   1   1   1   
17	1   1   1   1   1   1   1   1   1   1   1   1   1   1   1   
18	1   1   1   1   1   1   1   1   1   1   1   1   1   1   1   
19	1   1   1   1   1   1   1   1   1   1   1   1   1   1   1   
20	1   1   1   1   1   1   1   1   1   1   1   1   1   1   1   
21	1   1   1   1   1   1   1   1   1   1   1   1   1   1   1   
22	1   1   1   1   1   1   1   1   1   1   1   1   1   1   1   
23	1   1   1   1   1   1   1   1   1   1   1   1   1   1   1   
24	1   1   1   1   1   1   1   1   1   1   1   1   1   1   1   
25	1   1   1   1   1   1   1   1   1   1   1   1   1   1   1   
26	1   1   1   1   1   1   1   1   1   1   1   1   1   1   1   
27	1   1   1   1   1   1   1   1   1   1   1   1   1   1   1   
28	1   1   1   1   1   1   1   1   1   1   1   1   1   1   1   
29	1   1   1   1   1   1   1   1   1   1   1   1   1   1   1   
30	1   1   1   1   1   1   1   1   1   1   1   1   1   1   1   
31	1   1   1   1   1   1   1   1   1   1   1   1   1   1   1   
32	1   1   1   1   1   1   1   1   1   1   1   1   1   1   1   
33	1   1   1   1   1   1   1   1   1   1   1   1   1   1   1   
34	1   1   1   1   1   1   1   1   1   1   1   1   1   1   1   
35	1   1   1   1   1   1   1   1   1   1   1   1   1   1   1   
36	1   1   1   1   1   1   1   1   1   1   1   1   1   1   1   
37	1   1   1   1   1   1   1   1   1   1   1   1   1   1   1   
38	1   1   1   1   1   1   1   1   1   1   1   1   1   1   1   
39	1   1   1   1   1   1   1   1   1   1   1   1   1   1   1   
40	1   1   1   1   1   1   1   1   1   1   1   1   1   1   1   
41	1   1   1   1   1   1   1   1   1   1   1   1   1   1   1   
42	1   1   1   1   1   1   1   1   1   1   1   1   1   1   1   
43	1   1   1   1   1   1   1   1   1   1   1   1   1   1   1   
44	1   1   1   1   1   1   1   1   1   1   1   1   1   1   1   
45	1   1   1   1   1   1   1   1   1   1   1   1   1   1   1   
; # availability of resorce k in time slot t

param B: 
	F1  F2  F3  :=
Q1	0   0   0   
Q2	0   0   0   
; # if front f requires resources of type q

param U: 
	F1  F2  F3  :=
K1	0   0   0   
K2	0   0   0   
K3	0   0   0   
K4	0   0   0   
K5	0   0   0   
K6	0   0   0   
K7	0   0   0   
K8	0   0   0   
K9	0   0   0   
K10	0   0   0   
K11	1   1   1   
K12	0   0   0   
K13	2   2   2   
K14	2   2   2   
K15	0   0   0   
; # transit time of resource

param C:= 
K1 900
K2 900
K3 900
K4 900
K5 900
K6 1500
K7 1500
K8 4500
K9 4500
K10 5500
K11 5500
K12 5500
K13 5500
K14 5500
K15 5500
; #  water capacity of resource k

param S:= 
F1 9
F2 10
F3 10
; # max number of resources that can fly at front f in the same time slot

param D:= 

[*,*,F1 ]:  K1    K2    K3    K4    K5    K6    K7    K8    K9    K10   K11   K12   K13   K14   K15   :=
1           1.94  1.94  1.94  1.94  1.94  1.94  1.94  1.54  1.54  1.16  1.16  1.16  1.16  1.16  1.16  
2           1.94  1.94  1.94  1.94  1.94  1.94  1.94  1.54  1.54  1.16  1.16  1.16  1.16  1.16  1.16  
3           1.94  1.94  1.94  1.94  1.94  1.94  1.94  1.54  1.54  1.16  1.16  1.16  1.16  1.16  1.16  
4           1.94  1.94  1.94  1.94  1.94  1.94  1.94  1.54  1.54  1.16  1.16  1.16  1.16  1.16  1.16  
5           1.94  1.94  1.94  1.94  1.94  1.94  1.94  1.54  1.54  1.16  1.16  1.16  1.16  1.16  1.16  
6           1.94  1.94  1.94  1.94  1.94  1.94  1.94  1.54  1.54  1.16  1.16  1.16  1.16  1.16  1.16  
7           1.94  1.94  1.94  1.94  1.94  1.94  1.94  1.54  1.54  1.16  1.16  1.16  1.16  1.16  1.16  
8           1.94  1.94  1.94  1.94  1.94  1.94  1.94  1.54  1.54  1.16  1.16  1.16  1.16  1.16  1.16  
9           1.94  1.94  1.94  1.94  1.94  1.94  1.94  1.54  1.54  1.16  1.16  1.16  1.16  1.16  1.16  
10          1.94  1.94  1.94  1.94  1.94  1.94  1.94  1.54  1.54  1.16  1.16  1.16  1.16  1.16  1.16  
11          1.94  1.94  1.94  1.94  1.94  1.94  1.94  1.54  1.54  1.16  1.16  1.16  1.16  1.16  1.16  
12          1.94  1.94  1.94  1.94  1.94  1.94  1.94  1.54  1.54  1.16  1.16  1.16  1.16  1.16  1.16  
13          1.94  1.94  1.94  1.94  1.94  1.94  1.94  1.54  1.54  1.16  1.16  1.16  1.16  1.16  1.16  
14          1.94  1.94  1.94  1.94  1.94  1.94  1.94  1.54  1.54  1.16  1.16  1.16  1.16  1.16  1.16  
15          1.94  1.94  1.94  1.94  1.94  1.94  1.94  1.54  1.54  1.16  1.16  1.16  1.16  1.16  1.16  
16          1.94  1.94  1.94  1.94  1.94  1.94  1.94  1.54  1.54  1.16  1.16  1.16  1.16  1.16  1.16  
17          1.94  1.94  1.94  1.94  1.94  1.94  1.94  1.54  1.54  1.16  1.16  1.16  1.16  1.16  1.16  
18          1.94  1.94  1.94  1.94  1.94  1.94  1.94  1.54  1.54  1.16  1.16  1.16  1.16  1.16  1.16  
19          1.94  1.94  1.94  1.94  1.94  1.94  1.94  1.54  1.54  1.16  1.16  1.16  1.16  1.16  1.16  
20          1.94  1.94  1.94  1.94  1.94  1.94  1.94  1.54  1.54  1.16  1.16  1.16  1.16  1.16  1.16  
21          1.94  1.94  1.94  1.94  1.94  1.94  1.94  1.54  1.54  1.16  1.16  1.16  1.16  1.16  1.16  
22          1.94  1.94  1.94  1.94  1.94  1.94  1.94  1.54  1.54  1.16  1.16  1.16  1.16  1.16  1.16  
23          1.94  1.94  1.94  1.94  1.94  1.94  1.94  1.54  1.54  1.16  1.16  1.16  1.16  1.16  1.16  
24          1.94  1.94  1.94  1.94  1.94  1.94  1.94  1.54  1.54  1.16  1.16  1.16  1.16  1.16  1.16  
25          1.84  1.84  1.84  1.84  1.84  1.84  1.84  1.47  1.47  1.10  1.10  1.10  1.10  1.10  1.10  
26          1.84  1.84  1.84  1.84  1.84  1.84  1.84  1.47  1.47  1.10  1.10  1.10  1.10  1.10  1.10  
27          1.84  1.84  1.84  1.84  1.84  1.84  1.84  1.47  1.47  1.10  1.10  1.10  1.10  1.10  1.10  
28          1.84  1.84  1.84  1.84  1.84  1.84  1.84  1.47  1.47  1.10  1.10  1.10  1.10  1.10  1.10  
29          1.84  1.84  1.84  1.84  1.84  1.84  1.84  1.47  1.47  1.10  1.10  1.10  1.10  1.10  1.10  
30          1.84  1.84  1.84  1.84  1.84  1.84  1.84  1.47  1.47  1.10  1.10  1.10  1.10  1.10  1.10  
31          1.84  1.84  1.84  1.84  1.84  1.84  1.84  1.47  1.47  1.10  1.10  1.10  1.10  1.10  1.10  
32          1.84  1.84  1.84  1.84  1.84  1.84  1.84  1.47  1.47  1.10  1.10  1.10  1.10  1.10  1.10  
33          1.84  1.84  1.84  1.84  1.84  1.84  1.84  1.47  1.47  1.10  1.10  1.10  1.10  1.10  1.10  
34          1.94  1.94  1.94  1.94  1.94  1.94  1.94  1.54  1.54  1.16  1.16  1.16  1.16  1.16  1.16  
35          1.94  1.94  1.94  1.94  1.94  1.94  1.94  1.54  1.54  1.16  1.16  1.16  1.16  1.16  1.16  
36          1.94  1.94  1.94  1.94  1.94  1.94  1.94  1.54  1.54  1.16  1.16  1.16  1.16  1.16  1.16  
37          1.94  1.94  1.94  1.94  1.94  1.94  1.94  1.54  1.54  1.16  1.16  1.16  1.16  1.16  1.16  
38          1.94  1.94  1.94  1.94  1.94  1.94  1.94  1.54  1.54  1.16  1.16  1.16  1.16  1.16  1.16  
39          1.94  1.94  1.94  1.94  1.94  1.94  1.94  1.54  1.54  1.16  1.16  1.16  1.16  1.16  1.16  
40          1.94  1.94  1.94  1.94  1.94  1.94  1.94  1.54  1.54  1.16  1.16  1.16  1.16  1.16  1.16  
41          1.94  1.94  1.94  1.94  1.94  1.94  1.94  1.54  1.54  1.16  1.16  1.16  1.16  1.16  1.16  
42          1.94  1.94  1.94  1.94  1.94  1.94  1.94  1.54  1.54  1.16  1.16  1.16  1.16  1.16  1.16  
43          1.94  1.94  1.94  1.94  1.94  1.94  1.94  1.54  1.54  1.16  1.16  1.16  1.16  1.16  1.16  
44          1.94  1.94  1.94  1.94  1.94  1.94  1.94  1.54  1.54  1.16  1.16  1.16  1.16  1.16  1.16  
45          1.94  1.94  1.94  1.94  1.94  1.94  1.94  1.54  1.54  1.16  1.16  1.16  1.16  1.16  1.16  

[*,*,F2 ]:  K1    K2    K3    K4    K5    K6    K7    K8    K9    K10   K11   K12   K13   K14   K15   :=
1           1.44  1.44  1.44  1.44  1.44  1.44  1.44  1.14  1.14  0.86  0.86  0.86  0.86  0.86  0.86  
2           1.44  1.44  1.44  1.44  1.44  1.44  1.44  1.14  1.14  0.86  0.86  0.86  0.86  0.86  0.86  
3           1.44  1.44  1.44  1.44  1.44  1.44  1.44  1.14  1.14  0.86  0.86  0.86  0.86  0.86  0.86  
4           1.44  1.44  1.44  1.44  1.44  1.44  1.44  1.14  1.14  0.86  0.86  0.86  0.86  0.86  0.86  
5           1.44  1.44  1.44  1.44  1.44  1.44  1.44  1.14  1.14  0.86  0.86  0.86  0.86  0.86  0.86  
6           1.44  1.44  1.44  1.44  1.44  1.44  1.44  1.14  1.14  0.86  0.86  0.86  0.86  0.86  0.86  
7           1.44  1.44  1.44  1.44  1.44  1.44  1.44  1.14  1.14  0.86  0.86  0.86  0.86  0.86  0.86  
8           1.44  1.44  1.44  1.44  1.44  1.44  1.44  1.14  1.14  0.86  0.86  0.86  0.86  0.86  0.86  
9           1.44  1.44  1.44  1.44  1.44  1.44  1.44  1.14  1.14  0.86  0.86  0.86  0.86  0.86  0.86  
10          1.44  1.44  1.44  1.44  1.44  1.44  1.44  1.14  1.14  0.86  0.86  0.86  0.86  0.86  0.86  
11          1.44  1.44  1.44  1.44  1.44  1.44  1.44  1.14  1.14  0.86  0.86  0.86  0.86  0.86  0.86  
12          1.44  1.44  1.44  1.44  1.44  1.44  1.44  1.14  1.14  0.86  0.86  0.86  0.86  0.86  0.86  
13          1.44  1.44  1.44  1.44  1.44  1.44  1.44  1.14  1.14  0.86  0.86  0.86  0.86  0.86  0.86  
14          1.44  1.44  1.44  1.44  1.44  1.44  1.44  1.14  1.14  0.86  0.86  0.86  0.86  0.86  0.86  
15          1.44  1.44  1.44  1.44  1.44  1.44  1.44  1.14  1.14  0.86  0.86  0.86  0.86  0.86  0.86  
16          1.44  1.44  1.44  1.44  1.44  1.44  1.44  1.14  1.14  0.86  0.86  0.86  0.86  0.86  0.86  
17          1.44  1.44  1.44  1.44  1.44  1.44  1.44  1.14  1.14  0.86  0.86  0.86  0.86  0.86  0.86  
18          1.44  1.44  1.44  1.44  1.44  1.44  1.44  1.14  1.14  0.86  0.86  0.86  0.86  0.86  0.86  
19          1.44  1.44  1.44  1.44  1.44  1.44  1.44  1.14  1.14  0.86  0.86  0.86  0.86  0.86  0.86  
20          1.44  1.44  1.44  1.44  1.44  1.44  1.44  1.14  1.14  0.86  0.86  0.86  0.86  0.86  0.86  
21          1.44  1.44  1.44  1.44  1.44  1.44  1.44  1.14  1.14  0.86  0.86  0.86  0.86  0.86  0.86  
22          1.44  1.44  1.44  1.44  1.44  1.44  1.44  1.14  1.14  0.86  0.86  0.86  0.86  0.86  0.86  
23          1.44  1.44  1.44  1.44  1.44  1.44  1.44  1.14  1.14  0.86  0.86  0.86  0.86  0.86  0.86  
24          1.44  1.44  1.44  1.44  1.44  1.44  1.44  1.14  1.14  0.86  0.86  0.86  0.86  0.86  0.86  
25          1.36  1.36  1.36  1.36  1.36  1.36  1.36  1.09  1.09  0.82  0.82  0.82  0.82  0.82  0.82  
26          1.36  1.36  1.36  1.36  1.36  1.36  1.36  1.09  1.09  0.82  0.82  0.82  0.82  0.82  0.82  
27          1.36  1.36  1.36  1.36  1.36  1.36  1.36  1.09  1.09  0.82  0.82  0.82  0.82  0.82  0.82  
28          1.36  1.36  1.36  1.36  1.36  1.36  1.36  1.09  1.09  0.82  0.82  0.82  0.82  0.82  0.82  
29          1.36  1.36  1.36  1.36  1.36  1.36  1.36  1.09  1.09  0.82  0.82  0.82  0.82  0.82  0.82  
30          1.36  1.36  1.36  1.36  1.36  1.36  1.36  1.09  1.09  0.82  0.82  0.82  0.82  0.82  0.82  
31          1.36  1.36  1.36  1.36  1.36  1.36  1.36  1.09  1.09  0.82  0.82  0.82  0.82  0.82  0.82  
32          1.36  1.36  1.36  1.36  1.36  1.36  1.36  1.09  1.09  0.82  0.82  0.82  0.82  0.82  0.82  
33          1.36  1.36  1.36  1.36  1.36  1.36  1.36  1.09  1.09  0.82  0.82  0.82  0.82  0.82  0.82  
34          1.44  1.44  1.44  1.44  1.44  1.44  1.44  1.14  1.14  0.86  0.86  0.86  0.86  0.86  0.86  
35          1.44  1.44  1.44  1.44  1.44  1.44  1.44  1.14  1.14  0.86  0.86  0.86  0.86  0.86  0.86  
36          1.44  1.44  1.44  1.44  1.44  1.44  1.44  1.14  1.14  0.86  0.86  0.86  0.86  0.86  0.86  
37          1.44  1.44  1.44  1.44  1.44  1.44  1.44  1.14  1.14  0.86  0.86  0.86  0.86  0.86  0.86  
38          1.44  1.44  1.44  1.44  1.44  1.44  1.44  1.14  1.14  0.86  0.86  0.86  0.86  0.86  0.86  
39          1.44  1.44  1.44  1.44  1.44  1.44  1.44  1.14  1.14  0.86  0.86  0.86  0.86  0.86  0.86  
40          1.44  1.44  1.44  1.44  1.44  1.44  1.44  1.14  1.14  0.86  0.86  0.86  0.86  0.86  0.86  
41          1.44  1.44  1.44  1.44  1.44  1.44  1.44  1.14  1.14  0.86  0.86  0.86  0.86  0.86  0.86  
42          1.44  1.44  1.44  1.44  1.44  1.44  1.44  1.14  1.14  0.86  0.86  0.86  0.86  0.86  0.86  
43          1.44  1.44  1.44  1.44  1.44  1.44  1.44  1.14  1.14  0.86  0.86  0.86  0.86  0.86  0.86  
44          1.44  1.44  1.44  1.44  1.44  1.44  1.44  1.14  1.14  0.86  0.86  0.86  0.86  0.86  0.86  
45          1.44  1.44  1.44  1.44  1.44  1.44  1.44  1.14  1.14  0.86  0.86  0.86  0.86  0.86  0.86  

[*,*,F3 ]:  K1    K2    K3    K4    K5    K6    K7    K8    K9    K10   K11   K12   K13   K14   K15   :=
1           1.97  1.97  1.97  1.97  1.97  1.97  1.97  1.57  1.57  1.18  1.18  1.18  1.18  1.18  1.18  
2           1.97  1.97  1.97  1.97  1.97  1.97  1.97  1.57  1.57  1.18  1.18  1.18  1.18  1.18  1.18  
3           1.97  1.97  1.97  1.97  1.97  1.97  1.97  1.57  1.57  1.18  1.18  1.18  1.18  1.18  1.18  
4           1.97  1.97  1.97  1.97  1.97  1.97  1.97  1.57  1.57  1.18  1.18  1.18  1.18  1.18  1.18  
5           1.97  1.97  1.97  1.97  1.97  1.97  1.97  1.57  1.57  1.18  1.18  1.18  1.18  1.18  1.18  
6           1.97  1.97  1.97  1.97  1.97  1.97  1.97  1.57  1.57  1.18  1.18  1.18  1.18  1.18  1.18  
7           1.97  1.97  1.97  1.97  1.97  1.97  1.97  1.57  1.57  1.18  1.18  1.18  1.18  1.18  1.18  
8           1.97  1.97  1.97  1.97  1.97  1.97  1.97  1.57  1.57  1.18  1.18  1.18  1.18  1.18  1.18  
9           1.97  1.97  1.97  1.97  1.97  1.97  1.97  1.57  1.57  1.18  1.18  1.18  1.18  1.18  1.18  
10          1.97  1.97  1.97  1.97  1.97  1.97  1.97  1.57  1.57  1.18  1.18  1.18  1.18  1.18  1.18  
11          1.97  1.97  1.97  1.97  1.97  1.97  1.97  1.57  1.57  1.18  1.18  1.18  1.18  1.18  1.18  
12          1.97  1.97  1.97  1.97  1.97  1.97  1.97  1.57  1.57  1.18  1.18  1.18  1.18  1.18  1.18  
13          1.97  1.97  1.97  1.97  1.97  1.97  1.97  1.57  1.57  1.18  1.18  1.18  1.18  1.18  1.18  
14          1.97  1.97  1.97  1.97  1.97  1.97  1.97  1.57  1.57  1.18  1.18  1.18  1.18  1.18  1.18  
15          1.97  1.97  1.97  1.97  1.97  1.97  1.97  1.57  1.57  1.18  1.18  1.18  1.18  1.18  1.18  
16          1.97  1.97  1.97  1.97  1.97  1.97  1.97  1.57  1.57  1.18  1.18  1.18  1.18  1.18  1.18  
17          1.97  1.97  1.97  1.97  1.97  1.97  1.97  1.57  1.57  1.18  1.18  1.18  1.18  1.18  1.18  
18          1.97  1.97  1.97  1.97  1.97  1.97  1.97  1.57  1.57  1.18  1.18  1.18  1.18  1.18  1.18  
19          1.97  1.97  1.97  1.97  1.97  1.97  1.97  1.57  1.57  1.18  1.18  1.18  1.18  1.18  1.18  
20          1.97  1.97  1.97  1.97  1.97  1.97  1.97  1.57  1.57  1.18  1.18  1.18  1.18  1.18  1.18  
21          1.97  1.97  1.97  1.97  1.97  1.97  1.97  1.57  1.57  1.18  1.18  1.18  1.18  1.18  1.18  
22          1.97  1.97  1.97  1.97  1.97  1.97  1.97  1.57  1.57  1.18  1.18  1.18  1.18  1.18  1.18  
23          1.97  1.97  1.97  1.97  1.97  1.97  1.97  1.57  1.57  1.18  1.18  1.18  1.18  1.18  1.18  
24          1.97  1.97  1.97  1.97  1.97  1.97  1.97  1.57  1.57  1.18  1.18  1.18  1.18  1.18  1.18  
25          1.87  1.87  1.87  1.87  1.87  1.87  1.87  1.49  1.49  1.12  1.12  1.12  1.12  1.12  1.12  
26          1.87  1.87  1.87  1.87  1.87  1.87  1.87  1.49  1.49  1.12  1.12  1.12  1.12  1.12  1.12  
27          1.87  1.87  1.87  1.87  1.87  1.87  1.87  1.49  1.49  1.12  1.12  1.12  1.12  1.12  1.12  
28          1.87  1.87  1.87  1.87  1.87  1.87  1.87  1.49  1.49  1.12  1.12  1.12  1.12  1.12  1.12  
29          1.87  1.87  1.87  1.87  1.87  1.87  1.87  1.49  1.49  1.12  1.12  1.12  1.12  1.12  1.12  
30          1.87  1.87  1.87  1.87  1.87  1.87  1.87  1.49  1.49  1.12  1.12  1.12  1.12  1.12  1.12  
31          1.87  1.87  1.87  1.87  1.87  1.87  1.87  1.49  1.49  1.12  1.12  1.12  1.12  1.12  1.12  
32          1.87  1.87  1.87  1.87  1.87  1.87  1.87  1.49  1.49  1.12  1.12  1.12  1.12  1.12  1.12  
33          1.87  1.87  1.87  1.87  1.87  1.87  1.87  1.49  1.49  1.12  1.12  1.12  1.12  1.12  1.12  
34          1.97  1.97  1.97  1.97  1.97  1.97  1.97  1.57  1.57  1.18  1.18  1.18  1.18  1.18  1.18  
35          1.97  1.97  1.97  1.97  1.97  1.97  1.97  1.57  1.57  1.18  1.18  1.18  1.18  1.18  1.18  
36          1.97  1.97  1.97  1.97  1.97  1.97  1.97  1.57  1.57  1.18  1.18  1.18  1.18  1.18  1.18  
37          1.97  1.97  1.97  1.97  1.97  1.97  1.97  1.57  1.57  1.18  1.18  1.18  1.18  1.18  1.18  
38          1.97  1.97  1.97  1.97  1.97  1.97  1.97  1.57  1.57  1.18  1.18  1.18  1.18  1.18  1.18  
39          1.97  1.97  1.97  1.97  1.97  1.97  1.97  1.57  1.57  1.18  1.18  1.18  1.18  1.18  1.18  
40          1.97  1.97  1.97  1.97  1.97  1.97  1.97  1.57  1.57  1.18  1.18  1.18  1.18  1.18  1.18  
41          1.97  1.97  1.97  1.97  1.97  1.97  1.97  1.57  1.57  1.18  1.18  1.18  1.18  1.18  1.18  
42          1.97  1.97  1.97  1.97  1.97  1.97  1.97  1.57  1.57  1.18  1.18  1.18  1.18  1.18  1.18  
43          1.97  1.97  1.97  1.97  1.97  1.97  1.97  1.57  1.57  1.18  1.18  1.18  1.18  1.18  1.18  
44          1.97  1.97  1.97  1.97  1.97  1.97  1.97  1.57  1.57  1.18  1.18  1.18  1.18  1.18  1.18  
45          1.97  1.97  1.97  1.97  1.97  1.97  1.97  1.57  1.57  1.18  1.18  1.18  1.18  1.18  1.18  
; # downloads resource k can do at front f in time t if intermediate time slot

param E:= 

[*,*,F1 ]:  K1    K2    K3    K4    K5    K6    K7    K8    K9    K10   K11   K12   K13   K14   K15   :=
1           0.56  0.41  0.17  0.33  0.15  0.79  0.10  0.54  0.11  0.09  0.29  0.37  0.41  0.02  0.17  
2           0.56  0.41  0.17  0.33  0.15  0.79  0.10  0.54  0.11  0.09  0.29  0.37  0.41  0.02  0.17  
3           0.56  0.41  0.17  0.33  0.15  0.79  0.10  0.54  0.11  0.09  0.29  0.37  0.41  0.02  0.17  
4           0.56  0.41  0.17  0.33  0.15  0.79  0.10  0.54  0.11  0.09  0.29  0.37  0.41  0.02  0.17  
5           0.56  0.41  0.17  0.33  0.15  0.79  0.10  0.54  0.11  0.09  0.29  0.37  0.41  0.02  0.17  
6           0.56  0.41  0.17  0.33  0.15  0.79  0.10  0.54  0.11  0.09  0.29  0.37  0.41  0.02  0.17  
7           0.56  0.41  0.17  0.33  0.15  0.79  0.10  0.54  0.11  0.09  0.29  0.37  0.41  0.02  0.17  
8           0.56  0.41  0.17  0.33  0.15  0.79  0.10  0.54  0.11  0.09  0.29  0.37  0.41  0.02  0.17  
9           0.56  0.41  0.17  0.33  0.15  0.79  0.10  0.54  0.11  0.09  0.29  0.37  0.41  0.02  0.17  
10          0.56  0.41  0.17  0.33  0.15  0.79  0.10  0.54  0.11  0.09  0.29  0.37  0.41  0.02  0.17  
11          0.56  0.41  0.17  0.33  0.15  0.79  0.10  0.54  0.11  0.09  0.29  0.37  0.41  0.02  0.17  
12          0.56  0.41  0.17  0.33  0.15  0.79  0.10  0.54  0.11  0.09  0.29  0.37  0.41  0.02  0.17  
13          0.56  0.41  0.17  0.33  0.15  0.79  0.10  0.54  0.11  0.09  0.29  0.37  0.41  0.02  0.17  
14          0.56  0.41  0.17  0.33  0.15  0.79  0.10  0.54  0.11  0.09  0.29  0.37  0.41  0.02  0.17  
15          0.56  0.41  0.17  0.33  0.15  0.79  0.10  0.54  0.11  0.09  0.29  0.37  0.41  0.02  0.17  
16          0.56  0.41  0.17  0.33  0.15  0.79  0.10  0.54  0.11  0.09  0.29  0.37  0.41  0.02  0.17  
17          0.56  0.41  0.17  0.33  0.15  0.79  0.10  0.54  0.11  0.09  0.29  0.37  0.41  0.02  0.17  
18          0.56  0.41  0.17  0.33  0.15  0.79  0.10  0.54  0.11  0.09  0.29  0.37  0.41  0.02  0.17  
19          0.56  0.41  0.17  0.33  0.15  0.79  0.10  0.54  0.11  0.09  0.29  0.37  0.41  0.02  0.17  
20          0.56  0.41  0.17  0.33  0.15  0.79  0.10  0.54  0.11  0.09  0.29  0.37  0.41  0.02  0.17  
21          0.56  0.41  0.17  0.33  0.15  0.79  0.10  0.54  0.11  0.09  0.29  0.37  0.41  0.02  0.17  
22          0.56  0.41  0.17  0.33  0.15  0.79  0.10  0.54  0.11  0.09  0.29  0.37  0.41  0.02  0.17  
23          0.56  0.41  0.17  0.33  0.15  0.79  0.10  0.54  0.11  0.09  0.29  0.37  0.41  0.02  0.17  
24          0.56  0.41  0.17  0.33  0.15  0.79  0.10  0.54  0.11  0.09  0.29  0.37  0.41  0.02  0.17  
25          0.53  0.39  0.17  0.31  0.15  0.75  0.09  0.51  0.10  0.09  0.28  0.35  0.39  0.02  0.17  
26          0.53  0.39  0.17  0.31  0.15  0.75  0.09  0.51  0.10  0.09  0.28  0.35  0.39  0.02  0.17  
27          0.53  0.39  0.17  0.31  0.15  0.75  0.09  0.51  0.10  0.09  0.28  0.35  0.39  0.02  0.17  
28          0.53  0.39  0.17  0.31  0.15  0.75  0.09  0.51  0.10  0.09  0.28  0.35  0.39  0.02  0.17  
29          0.53  0.39  0.17  0.31  0.15  0.75  0.09  0.51  0.10  0.09  0.28  0.35  0.39  0.02  0.17  
30          0.53  0.39  0.17  0.31  0.15  0.75  0.09  0.51  0.10  0.09  0.28  0.35  0.39  0.02  0.17  
31          0.53  0.39  0.17  0.31  0.15  0.75  0.09  0.51  0.10  0.09  0.28  0.35  0.39  0.02  0.17  
32          0.53  0.39  0.17  0.31  0.15  0.75  0.09  0.51  0.10  0.09  0.28  0.35  0.39  0.02  0.17  
33          0.53  0.39  0.17  0.31  0.15  0.75  0.09  0.51  0.10  0.09  0.28  0.35  0.39  0.02  0.17  
34          0.56  0.41  0.17  0.33  0.15  0.79  0.10  0.54  0.11  0.09  0.29  0.37  0.41  0.02  0.17  
35          0.56  0.41  0.17  0.33  0.15  0.79  0.10  0.54  0.11  0.09  0.29  0.37  0.41  0.02  0.17  
36          0.56  0.41  0.17  0.33  0.15  0.79  0.10  0.54  0.11  0.09  0.29  0.37  0.41  0.02  0.17  
37          0.56  0.41  0.17  0.33  0.15  0.79  0.10  0.54  0.11  0.09  0.29  0.37  0.41  0.02  0.17  
38          0.56  0.41  0.17  0.33  0.15  0.79  0.10  0.54  0.11  0.09  0.29  0.37  0.41  0.02  0.17  
39          0.56  0.41  0.17  0.33  0.15  0.79  0.10  0.54  0.11  0.09  0.29  0.37  0.41  0.02  0.17  
40          0.56  0.41  0.17  0.33  0.15  0.79  0.10  0.54  0.11  0.09  0.29  0.37  0.41  0.02  0.17  
41          0.56  0.41  0.17  0.33  0.15  0.79  0.10  0.54  0.11  0.09  0.29  0.37  0.41  0.02  0.17  
42          0.56  0.41  0.17  0.33  0.15  0.79  0.10  0.54  0.11  0.09  0.29  0.37  0.41  0.02  0.17  
43          0.56  0.41  0.17  0.33  0.15  0.79  0.10  0.54  0.11  0.09  0.29  0.37  0.41  0.02  0.17  
44          0.56  0.41  0.17  0.33  0.15  0.79  0.10  0.54  0.11  0.09  0.29  0.37  0.41  0.02  0.17  
45          0.56  0.41  0.17  0.33  0.15  0.79  0.10  0.54  0.11  0.09  0.29  0.37  0.41  0.02  0.17  

[*,*,F2 ]:  K1    K2    K3    K4    K5    K6    K7    K8    K9    K10   K11   K12   K13   K14   K15   :=
1           0.39  0.40  0.11  0.17  0.01  0.70  0.01  0.41  0.05  0.12  0.16  0.34  0.33  0.03  0.08  
2           0.39  0.40  0.11  0.17  0.01  0.70  0.01  0.41  0.05  0.12  0.16  0.34  0.33  0.03  0.08  
3           0.39  0.40  0.11  0.17  0.01  0.70  0.01  0.41  0.05  0.12  0.16  0.34  0.33  0.03  0.08  
4           0.39  0.40  0.11  0.17  0.01  0.70  0.01  0.41  0.05  0.12  0.16  0.34  0.33  0.03  0.08  
5           0.39  0.40  0.11  0.17  0.01  0.70  0.01  0.41  0.05  0.12  0.16  0.34  0.33  0.03  0.08  
6           0.39  0.40  0.11  0.17  0.01  0.70  0.01  0.41  0.05  0.12  0.16  0.34  0.33  0.03  0.08  
7           0.39  0.40  0.11  0.17  0.01  0.70  0.01  0.41  0.05  0.12  0.16  0.34  0.33  0.03  0.08  
8           0.39  0.40  0.11  0.17  0.01  0.70  0.01  0.41  0.05  0.12  0.16  0.34  0.33  0.03  0.08  
9           0.39  0.40  0.11  0.17  0.01  0.70  0.01  0.41  0.05  0.12  0.16  0.34  0.33  0.03  0.08  
10          0.39  0.40  0.11  0.17  0.01  0.70  0.01  0.41  0.05  0.12  0.16  0.34  0.33  0.03  0.08  
11          0.39  0.40  0.11  0.17  0.01  0.70  0.01  0.41  0.05  0.12  0.16  0.34  0.33  0.03  0.08  
12          0.39  0.40  0.11  0.17  0.01  0.70  0.01  0.41  0.05  0.12  0.16  0.34  0.33  0.03  0.08  
13          0.39  0.40  0.11  0.17  0.01  0.70  0.01  0.41  0.05  0.12  0.16  0.34  0.33  0.03  0.08  
14          0.39  0.40  0.11  0.17  0.01  0.70  0.01  0.41  0.05  0.12  0.16  0.34  0.33  0.03  0.08  
15          0.39  0.40  0.11  0.17  0.01  0.70  0.01  0.41  0.05  0.12  0.16  0.34  0.33  0.03  0.08  
16          0.39  0.40  0.11  0.17  0.01  0.70  0.01  0.41  0.05  0.12  0.16  0.34  0.33  0.03  0.08  
17          0.39  0.40  0.11  0.17  0.01  0.70  0.01  0.41  0.05  0.12  0.16  0.34  0.33  0.03  0.08  
18          0.39  0.40  0.11  0.17  0.01  0.70  0.01  0.41  0.05  0.12  0.16  0.34  0.33  0.03  0.08  
19          0.39  0.40  0.11  0.17  0.01  0.70  0.01  0.41  0.05  0.12  0.16  0.34  0.33  0.03  0.08  
20          0.39  0.40  0.11  0.17  0.01  0.70  0.01  0.41  0.05  0.12  0.16  0.34  0.33  0.03  0.08  
21          0.39  0.40  0.11  0.17  0.01  0.70  0.01  0.41  0.05  0.12  0.16  0.34  0.33  0.03  0.08  
22          0.39  0.40  0.11  0.17  0.01  0.70  0.01  0.41  0.05  0.12  0.16  0.34  0.33  0.03  0.08  
23          0.39  0.40  0.11  0.17  0.01  0.70  0.01  0.41  0.05  0.12  0.16  0.34  0.33  0.03  0.08  
24          0.39  0.40  0.11  0.17  0.01  0.70  0.01  0.41  0.05  0.12  0.16  0.34  0.33  0.03  0.08  
25          0.37  0.38  0.11  0.16  0.01  0.67  0.01  0.39  0.04  0.11  0.16  0.32  0.31  0.03  0.07  
26          0.37  0.38  0.11  0.16  0.01  0.67  0.01  0.39  0.04  0.11  0.16  0.32  0.31  0.03  0.07  
27          0.37  0.38  0.11  0.16  0.01  0.67  0.01  0.39  0.04  0.11  0.16  0.32  0.31  0.03  0.07  
28          0.37  0.38  0.11  0.16  0.01  0.67  0.01  0.39  0.04  0.11  0.16  0.32  0.31  0.03  0.07  
29          0.37  0.38  0.11  0.16  0.01  0.67  0.01  0.39  0.04  0.11  0.16  0.32  0.31  0.03  0.07  
30          0.37  0.38  0.11  0.16  0.01  0.67  0.01  0.39  0.04  0.11  0.16  0.32  0.31  0.03  0.07  
31          0.37  0.38  0.11  0.16  0.01  0.67  0.01  0.39  0.04  0.11  0.16  0.32  0.31  0.03  0.07  
32          0.37  0.38  0.11  0.16  0.01  0.67  0.01  0.39  0.04  0.11  0.16  0.32  0.31  0.03  0.07  
33          0.37  0.38  0.11  0.16  0.01  0.67  0.01  0.39  0.04  0.11  0.16  0.32  0.31  0.03  0.07  
34          0.39  0.40  0.11  0.17  0.01  0.70  0.01  0.41  0.05  0.12  0.16  0.34  0.33  0.03  0.08  
35          0.39  0.40  0.11  0.17  0.01  0.70  0.01  0.41  0.05  0.12  0.16  0.34  0.33  0.03  0.08  
36          0.39  0.40  0.11  0.17  0.01  0.70  0.01  0.41  0.05  0.12  0.16  0.34  0.33  0.03  0.08  
37          0.39  0.40  0.11  0.17  0.01  0.70  0.01  0.41  0.05  0.12  0.16  0.34  0.33  0.03  0.08  
38          0.39  0.40  0.11  0.17  0.01  0.70  0.01  0.41  0.05  0.12  0.16  0.34  0.33  0.03  0.08  
39          0.39  0.40  0.11  0.17  0.01  0.70  0.01  0.41  0.05  0.12  0.16  0.34  0.33  0.03  0.08  
40          0.39  0.40  0.11  0.17  0.01  0.70  0.01  0.41  0.05  0.12  0.16  0.34  0.33  0.03  0.08  
41          0.39  0.40  0.11  0.17  0.01  0.70  0.01  0.41  0.05  0.12  0.16  0.34  0.33  0.03  0.08  
42          0.39  0.40  0.11  0.17  0.01  0.70  0.01  0.41  0.05  0.12  0.16  0.34  0.33  0.03  0.08  
43          0.39  0.40  0.11  0.17  0.01  0.70  0.01  0.41  0.05  0.12  0.16  0.34  0.33  0.03  0.08  
44          0.39  0.40  0.11  0.17  0.01  0.70  0.01  0.41  0.05  0.12  0.16  0.34  0.33  0.03  0.08  
45          0.39  0.40  0.11  0.17  0.01  0.70  0.01  0.41  0.05  0.12  0.16  0.34  0.33  0.03  0.08  

[*,*,F3 ]:  K1    K2    K3    K4    K5    K6    K7    K8    K9    K10   K11   K12   K13   K14   K15   :=
1           0.49  0.39  0.22  0.24  0.14  0.91  0.04  0.56  0.11  0.17  0.27  0.40  0.34  0.02  0.07  
2           0.49  0.39  0.22  0.24  0.14  0.91  0.04  0.56  0.11  0.17  0.27  0.40  0.34  0.02  0.07  
3           0.49  0.39  0.22  0.24  0.14  0.91  0.04  0.56  0.11  0.17  0.27  0.40  0.34  0.02  0.07  
4           0.49  0.39  0.22  0.24  0.14  0.91  0.04  0.56  0.11  0.17  0.27  0.40  0.34  0.02  0.07  
5           0.49  0.39  0.22  0.24  0.14  0.91  0.04  0.56  0.11  0.17  0.27  0.40  0.34  0.02  0.07  
6           0.49  0.39  0.22  0.24  0.14  0.91  0.04  0.56  0.11  0.17  0.27  0.40  0.34  0.02  0.07  
7           0.49  0.39  0.22  0.24  0.14  0.91  0.04  0.56  0.11  0.17  0.27  0.40  0.34  0.02  0.07  
8           0.49  0.39  0.22  0.24  0.14  0.91  0.04  0.56  0.11  0.17  0.27  0.40  0.34  0.02  0.07  
9           0.49  0.39  0.22  0.24  0.14  0.91  0.04  0.56  0.11  0.17  0.27  0.40  0.34  0.02  0.07  
10          0.49  0.39  0.22  0.24  0.14  0.91  0.04  0.56  0.11  0.17  0.27  0.40  0.34  0.02  0.07  
11          0.49  0.39  0.22  0.24  0.14  0.91  0.04  0.56  0.11  0.17  0.27  0.40  0.34  0.02  0.07  
12          0.49  0.39  0.22  0.24  0.14  0.91  0.04  0.56  0.11  0.17  0.27  0.40  0.34  0.02  0.07  
13          0.49  0.39  0.22  0.24  0.14  0.91  0.04  0.56  0.11  0.17  0.27  0.40  0.34  0.02  0.07  
14          0.49  0.39  0.22  0.24  0.14  0.91  0.04  0.56  0.11  0.17  0.27  0.40  0.34  0.02  0.07  
15          0.49  0.39  0.22  0.24  0.14  0.91  0.04  0.56  0.11  0.17  0.27  0.40  0.34  0.02  0.07  
16          0.49  0.39  0.22  0.24  0.14  0.91  0.04  0.56  0.11  0.17  0.27  0.40  0.34  0.02  0.07  
17          0.49  0.39  0.22  0.24  0.14  0.91  0.04  0.56  0.11  0.17  0.27  0.40  0.34  0.02  0.07  
18          0.49  0.39  0.22  0.24  0.14  0.91  0.04  0.56  0.11  0.17  0.27  0.40  0.34  0.02  0.07  
19          0.49  0.39  0.22  0.24  0.14  0.91  0.04  0.56  0.11  0.17  0.27  0.40  0.34  0.02  0.07  
20          0.49  0.39  0.22  0.24  0.14  0.91  0.04  0.56  0.11  0.17  0.27  0.40  0.34  0.02  0.07  
21          0.49  0.39  0.22  0.24  0.14  0.91  0.04  0.56  0.11  0.17  0.27  0.40  0.34  0.02  0.07  
22          0.49  0.39  0.22  0.24  0.14  0.91  0.04  0.56  0.11  0.17  0.27  0.40  0.34  0.02  0.07  
23          0.49  0.39  0.22  0.24  0.14  0.91  0.04  0.56  0.11  0.17  0.27  0.40  0.34  0.02  0.07  
24          0.49  0.39  0.22  0.24  0.14  0.91  0.04  0.56  0.11  0.17  0.27  0.40  0.34  0.02  0.07  
25          0.47  0.37  0.21  0.22  0.13  0.86  0.04  0.54  0.10  0.16  0.26  0.38  0.33  0.02  0.07  
26          0.47  0.37  0.21  0.22  0.13  0.86  0.04  0.54  0.10  0.16  0.26  0.38  0.33  0.02  0.07  
27          0.47  0.37  0.21  0.22  0.13  0.86  0.04  0.54  0.10  0.16  0.26  0.38  0.33  0.02  0.07  
28          0.47  0.37  0.21  0.22  0.13  0.86  0.04  0.54  0.10  0.16  0.26  0.38  0.33  0.02  0.07  
29          0.47  0.37  0.21  0.22  0.13  0.86  0.04  0.54  0.10  0.16  0.26  0.38  0.33  0.02  0.07  
30          0.47  0.37  0.21  0.22  0.13  0.86  0.04  0.54  0.10  0.16  0.26  0.38  0.33  0.02  0.07  
31          0.47  0.37  0.21  0.22  0.13  0.86  0.04  0.54  0.10  0.16  0.26  0.38  0.33  0.02  0.07  
32          0.47  0.37  0.21  0.22  0.13  0.86  0.04  0.54  0.10  0.16  0.26  0.38  0.33  0.02  0.07  
33          0.47  0.37  0.21  0.22  0.13  0.86  0.04  0.54  0.10  0.16  0.26  0.38  0.33  0.02  0.07  
34          0.49  0.39  0.22  0.24  0.14  0.91  0.04  0.56  0.11  0.17  0.27  0.40  0.34  0.02  0.07  
35          0.49  0.39  0.22  0.24  0.14  0.91  0.04  0.56  0.11  0.17  0.27  0.40  0.34  0.02  0.07  
36          0.49  0.39  0.22  0.24  0.14  0.91  0.04  0.56  0.11  0.17  0.27  0.40  0.34  0.02  0.07  
37          0.49  0.39  0.22  0.24  0.14  0.91  0.04  0.56  0.11  0.17  0.27  0.40  0.34  0.02  0.07  
38          0.49  0.39  0.22  0.24  0.14  0.91  0.04  0.56  0.11  0.17  0.27  0.40  0.34  0.02  0.07  
39          0.49  0.39  0.22  0.24  0.14  0.91  0.04  0.56  0.11  0.17  0.27  0.40  0.34  0.02  0.07  
40          0.49  0.39  0.22  0.24  0.14  0.91  0.04  0.56  0.11  0.17  0.27  0.40  0.34  0.02  0.07  
41          0.49  0.39  0.22  0.24  0.14  0.91  0.04  0.56  0.11  0.17  0.27  0.40  0.34  0.02  0.07  
42          0.49  0.39  0.22  0.24  0.14  0.91  0.04  0.56  0.11  0.17  0.27  0.40  0.34  0.02  0.07  
43          0.49  0.39  0.22  0.24  0.14  0.91  0.04  0.56  0.11  0.17  0.27  0.40  0.34  0.02  0.07  
44          0.49  0.39  0.22  0.24  0.14  0.91  0.04  0.56  0.11  0.17  0.27  0.40  0.34  0.02  0.07  
45          0.49  0.39  0.22  0.24  0.14  0.91  0.04  0.56  0.11  0.17  0.27  0.40  0.34  0.02  0.07  
; # downloads resource k can do at front f in time t if starting or ending flight

param W: 
	F1        F2        F3        :=
1	1036.11   518.06    518.06    
2	4144.45   2072.22   2072.22   
3	4144.45   2072.22   2072.22   
4	4144.45   2072.22   2072.22   
5	4144.45   2072.22   2072.22   
6	4144.45   2072.22   2072.22   
7	4144.45   2072.22   2072.22   
8	4144.45   2072.22   2072.22   
9	4144.45   2072.22   2072.22   
10	4144.45   2072.22   2072.22   
11	4144.45   2072.22   2072.22   
12	4144.45   2072.22   2072.22   
13	4144.45   2072.22   2072.22   
14	4144.45   2072.22   2072.22   
15	4144.45   2072.22   2072.22   
16	4144.45   2072.22   2072.22   
17	4144.45   2072.22   2072.22   
18	4144.45   2072.22   2072.22   
19	1841.98   920.99    920.99    
20	1841.98   920.99    920.99    
21	1841.98   920.99    920.99    
22	1841.98   920.99    920.99    
23	1841.98   920.99    920.99    
24	1841.98   920.99    920.99    
25	1841.98   920.99    920.99    
26	1841.98   920.99    920.99    
27	1841.98   920.99    920.99    
28	1841.98   920.99    920.99    
29	1841.98   920.99    920.99    
30	1841.98   920.99    920.99    
31	1841.98   920.99    920.99    
32	1841.98   920.99    920.99    
33	1841.98   920.99    920.99    
34	1841.98   920.99    920.99    
35	1841.98   920.99    920.99    
36	1841.98   920.99    920.99    
37	1841.98   920.99    920.99    
38	1841.98   920.99    920.99    
39	1841.98   920.99    920.99    
40	1841.98   920.99    920.99    
41	1841.98   920.99    920.99    
42	1841.98   920.99    920.99    
43	1841.98   920.99    920.99    
44	1841.98   920.99    920.99    
45	460.49    230.25    230.25    
; # water needed at front f in time slot t

param M := 100000000; 

param a1:= 10000000;

param a2:= 100;

param a3:= 0.0001;
